c ren 1 -> 1
c ren 2 -> 2
c ren 4 -> 3
c ren 6 -> 4
c ren 8 -> 5
c ren 11 -> 6
c ren 14 -> 7
c ren 18 -> 8
c ren 20 -> 9
c ren 21 -> 10
c ren 22 -> 11
c ren 25 -> 12
c ren 26 -> 13
c ren 28 -> 14
c ren 31 -> 15
c ren 34 -> 16
c ren 35 -> 17
c ren 37 -> 18
c ren 40 -> 19
c ren 43 -> 20
c ren 46 -> 21
c ren 48 -> 22
c ren 80 -> 23
c ren 86 -> 24
c ren 94 -> 25
c ren 130 -> 26
c ren 136 -> 27
c ren 150 -> 28
p cnf 28 53
a 1 2 3 4 5 6 7 9 12 13 14 16 17 18 19 20 24 25 27 0
d 10 24 25 0
d 21 9 12 0
d 23 4 5 6 7 17 18 19 0
d 26 1 16 0
d 28 27 0
e 8 11 15 22 0
-1 2 -3 4 5 6 7 8 0
3 -8 -11 -15 -22 -26 0
-4 -8 -11 -15 -22 -26 0
2 3 4 5 6 7 -8 -11 13 14 -15 17 18 19 20 -22 24 25 27 28 0
4 5 6 7 -17 18 -23 0
1 -7 8 0
1 3 8 0
-9 -10 11 0
9 10 11 0
-7 -8 -11 -15 -22 -26 0
4 5 6 7 -8 -10 -11 -14 -15 18 19 20 -22 -25 0
-12 13 14 15 0
12 -14 15 0
-2 4 5 6 7 -8 -10 -11 -15 18 19 20 -22 -25 0
2 3 4 5 6 7 -8 -11 -15 18 19 20 -21 -22 -24 -28 0
4 5 6 7 -8 10 -11 -14 -15 18 19 20 -22 24 25 0
16 -17 22 0
4 5 6 7 -8 -10 -11 -14 -15 18 19 20 -22 -24 0
16 -20 22 0
-8 -11 -15 -19 -22 -26 0
4 5 6 7 -8 -10 -11 -13 -15 17 18 19 20 -22 -25 0
16 21 22 0
16 -19 22 0
16 -18 22 0
1 -5 8 0
1 -6 8 0
2 3 4 5 6 7 -8 -11 13 14 -15 18 19 20 21 -22 24 25 27 0
-6 -8 -11 -15 -22 -26 0
-5 -8 -11 -15 -22 -26 0
-8 -11 -15 -20 -22 -26 0
3 4 5 6 7 -8 -10 -11 -15 17 18 19 20 -22 -25 -27 0
-2 -8 -11 -15 -22 -26 0
3 4 5 6 7 -8 10 -11 -15 18 19 20 -22 24 25 -27 0
2 3 4 5 6 7 -8 -11 -13 -15 18 19 20 -21 -22 -28 0
1 -4 8 0
-2 4 5 6 7 -8 -10 -11 -15 17 18 19 20 -22 -24 0
-8 -11 -15 -22 23 0
12 -13 15 0
-2 4 5 6 7 -8 10 -11 -15 18 19 20 -22 24 25 0
-8 -11 -15 -22 -24 -26 0
1 -2 8 0
2 -3 4 5 6 7 -8 -11 13 14 -15 18 19 20 -22 24 25 26 0
2 3 4 5 6 7 -8 -11 -14 -15 18 19 20 -21 -22 -28 0
4 5 6 7 -8 10 -11 -13 -15 17 18 19 20 -22 24 25 0
4 5 6 7 -8 -10 -11 -13 -15 18 19 20 -22 -24 0
-8 -11 -14 -15 -22 -26 0
2 3 4 5 6 7 -8 -11 -15 18 19 20 -21 -22 -25 -28 0
3 4 5 6 7 -8 -10 -11 -15 18 19 20 -22 -24 -27 0
-8 -11 -15 -18 -22 -26 0
-8 -11 -15 -17 -22 -26 0
-16 17 18 19 20 -21 22 0
-8 -11 -15 -22 -25 -26 0
-8 -11 -13 -15 -22 -26 0
